4 
5  18 38 56 
6  11 24 39 54 
7  09 24 39 54 
8  09 24 39 54 
9  10 24 39 54 
10  09 24 38 53 
11  08 23 38 53 
12  08 23 38 53 
13  08 23 38 53 
14  08 23 38 53 
15  08 23 38 53 
16  08 23 38 53 
17  08 23 38 53 
18  08 23 39 54 
19  09 24 39 54 
20  09 24 39 54 
21  12 27 39 54 
22  09 24 43 58 
23  13 
0 
